134516
1,10,29,64,73,13,18,37,45,46,54,80,62,70,26,76,67,36,66,20,71,21,48,24,19,5,22,44,68,59,53,4,50,65,63,39,41,52,8,83,28,35,30,2,38,16,33,27,7,56,17,11,75,82,40,74,58,77,9,32,79,6,61,15,69,25,42,55,23,12,3,57,34,49,43,60,81,72,51,47,78,31,14,1